(set-info :category "industrial")
(set-info :status sat)
(declare-fun x01 () (_ BitVec 8))
(declare-fun x02 () (_ BitVec 8))
(declare-fun x03 () (_ BitVec 8))
(declare-fun x04 () (_ BitVec 8))
(declare-fun x08 () (_ BitVec 8))
(declare-fun x10 () (_ BitVec 8))
(declare-fun x14 () (_ BitVec 8))
(declare-fun x15 () (_ BitVec 8))
(declare-fun x18 () (_ BitVec 8))
(declare-fun x21 () (_ BitVec 8))
(declare-fun x22 () (_ BitVec 8))
(declare-fun x25 () (_ BitVec 8))
(declare-fun x27 () (_ BitVec 8))
(declare-fun x30 () (_ BitVec 8))
(declare-fun x31 () (_ BitVec 8))
(declare-fun x32 () (_ BitVec 8))
(declare-fun x35 () (_ BitVec 8))
(declare-fun x38 () (_ BitVec 8))
(declare-fun x40 () (_ BitVec 8))
(declare-fun x41 () (_ BitVec 8))
(declare-fun x43 () (_ BitVec 8))
(declare-fun x46 () (_ BitVec 8))
(declare-fun x47 () (_ BitVec 8))
(declare-fun x48 () (_ BitVec 8))
(declare-fun x52 () (_ BitVec 8))
(declare-fun x54 () (_ BitVec 8))
(declare-fun x55 () (_ BitVec 8))
(declare-fun x56 () (_ BitVec 8))
(declare-fun x57 () (_ BitVec 8))
(declare-fun x58 () (_ BitVec 8))
(declare-fun x61 () (_ BitVec 8))
(declare-fun x63 () (_ BitVec 8))
(declare-fun x66 () (_ BitVec 8))
(declare-fun x67 () (_ BitVec 8))
(declare-fun x68 () (_ BitVec 8))
(declare-fun x70 () (_ BitVec 8))
(declare-fun x71 () (_ BitVec 8))
(declare-fun x72 () (_ BitVec 8))
(declare-fun x73 () (_ BitVec 8))
(declare-fun x74 () (_ BitVec 8))
(declare-fun x75 () (_ BitVec 8))
(declare-fun x76 () (_ BitVec 8))
(declare-fun x80 () (_ BitVec 8))
(declare-fun x83 () (_ BitVec 8))
(declare-fun x85 () (_ BitVec 8))
(declare-fun x86 () (_ BitVec 8))
(declare-fun x88 () (_ BitVec 8))
(assert (bvult x01 (_ bv9 8)))
(assert (bvult x02 (_ bv9 8)))
(assert (bvult x03 (_ bv9 8)))
(assert (bvult x04 (_ bv9 8)))
(assert (bvult x08 (_ bv9 8)))
(assert (bvult x10 (_ bv9 8)))
(assert (bvult x14 (_ bv9 8)))
(assert (bvult x15 (_ bv9 8)))
(assert (bvult x18 (_ bv9 8)))
(assert (bvult x21 (_ bv9 8)))
(assert (bvult x22 (_ bv9 8)))
(assert (bvult x25 (_ bv9 8)))
(assert (bvult x27 (_ bv9 8)))
(assert (bvult x30 (_ bv9 8)))
(assert (bvult x31 (_ bv9 8)))
(assert (bvult x32 (_ bv9 8)))
(assert (bvult x35 (_ bv9 8)))
(assert (bvult x38 (_ bv9 8)))
(assert (bvult x40 (_ bv9 8)))
(assert (bvult x41 (_ bv9 8)))
(assert (bvult x43 (_ bv9 8)))
(assert (bvult x46 (_ bv9 8)))
(assert (bvult x47 (_ bv9 8)))
(assert (bvult x48 (_ bv9 8)))
(assert (bvult x52 (_ bv9 8)))
(assert (bvult x54 (_ bv9 8)))
(assert (bvult x55 (_ bv9 8)))
(assert (bvult x56 (_ bv9 8)))
(assert (bvult x57 (_ bv9 8)))
(assert (bvult x58 (_ bv9 8)))
(assert (bvult x61 (_ bv9 8)))
(assert (bvult x63 (_ bv9 8)))
(assert (bvult x66 (_ bv9 8)))
(assert (bvult x67 (_ bv9 8)))
(assert (bvult x68 (_ bv9 8)))
(assert (bvult x70 (_ bv9 8)))
(assert (bvult x71 (_ bv9 8)))
(assert (bvult x72 (_ bv9 8)))
(assert (bvult x73 (_ bv9 8)))
(assert (bvult x74 (_ bv9 8)))
(assert (bvult x75 (_ bv9 8)))
(assert (bvult x76 (_ bv9 8)))
(assert (bvult x80 (_ bv9 8)))
(assert (bvult x83 (_ bv9 8)))
(assert (bvult x85 (_ bv9 8)))
(assert (bvult x86 (_ bv9 8)))
(assert (bvult x88 (_ bv9 8)))
(assert (not (= (_ bv9 8) x01)))
(assert (not (= (_ bv9 8) x02)))
(assert (not (= (_ bv9 8) x03)))
(assert (not (= (_ bv9 8) x04)))
(assert (not (= (_ bv9 8) (_ bv3 8))))
(assert (not (= (_ bv9 8) (_ bv1 8))))
(assert (not (= (_ bv9 8) (_ bv8 8))))
(assert (not (= (_ bv9 8) x08)))
(assert (not (= x01 x02)))
(assert (not (= x01 x03)))
(assert (not (= x01 x04)))
(assert (not (= x01 (_ bv3 8))))
(assert (not (= x01 (_ bv1 8))))
(assert (not (= x01 (_ bv8 8))))
(assert (not (= x01 x08)))
(assert (not (= x02 x03)))
(assert (not (= x02 x04)))
(assert (not (= x02 (_ bv3 8))))
(assert (not (= x02 (_ bv1 8))))
(assert (not (= x02 (_ bv8 8))))
(assert (not (= x02 x08)))
(assert (not (= x03 x04)))
(assert (not (= x03 (_ bv3 8))))
(assert (not (= x03 (_ bv1 8))))
(assert (not (= x03 (_ bv8 8))))
(assert (not (= x03 x08)))
(assert (not (= x04 (_ bv3 8))))
(assert (not (= x04 (_ bv1 8))))
(assert (not (= x04 (_ bv8 8))))
(assert (not (= x04 x08)))
(assert (not (= (_ bv3 8) (_ bv1 8))))
(assert (not (= (_ bv3 8) (_ bv8 8))))
(assert (not (= (_ bv3 8) x08)))
(assert (not (= (_ bv1 8) (_ bv8 8))))
(assert (not (= (_ bv1 8) x08)))
(assert (not (= (_ bv8 8) x08)))
(assert (not (= x10 (_ bv4 8))))
(assert (not (= x10 (_ bv7 8))))
(assert (not (= x10 (_ bv8 8))))
(assert (not (= x10 x14)))
(assert (not (= x10 x15)))
(assert (not (= x10 (_ bv2 8))))
(assert (not (= x10 (_ bv3 8))))
(assert (not (= x10 x18)))
(assert (not (= (_ bv4 8) (_ bv7 8))))
(assert (not (= (_ bv4 8) (_ bv8 8))))
(assert (not (= (_ bv4 8) x14)))
(assert (not (= (_ bv4 8) x15)))
(assert (not (= (_ bv4 8) (_ bv2 8))))
(assert (not (= (_ bv4 8) (_ bv3 8))))
(assert (not (= (_ bv4 8) x18)))
(assert (not (= (_ bv7 8) (_ bv8 8))))
(assert (not (= (_ bv7 8) x14)))
(assert (not (= (_ bv7 8) x15)))
(assert (not (= (_ bv7 8) (_ bv2 8))))
(assert (not (= (_ bv7 8) (_ bv3 8))))
(assert (not (= (_ bv7 8) x18)))
(assert (not (= (_ bv8 8) x14)))
(assert (not (= (_ bv8 8) x15)))
(assert (not (= (_ bv8 8) (_ bv2 8))))
(assert (not (= (_ bv8 8) (_ bv3 8))))
(assert (not (= (_ bv8 8) x18)))
(assert (not (= x14 x15)))
(assert (not (= x14 (_ bv2 8))))
(assert (not (= x14 (_ bv3 8))))
(assert (not (= x14 x18)))
(assert (not (= x15 (_ bv2 8))))
(assert (not (= x15 (_ bv3 8))))
(assert (not (= x15 x18)))
(assert (not (= (_ bv2 8) (_ bv3 8))))
(assert (not (= (_ bv2 8) x18)))
(assert (not (= (_ bv3 8) x18)))
(assert (not (= (_ bv6 8) x21)))
(assert (not (= (_ bv6 8) x22)))
(assert (not (= (_ bv6 8) (_ bv2 8))))
(assert (not (= (_ bv6 8) (_ bv4 8))))
(assert (not (= (_ bv6 8) x25)))
(assert (not (= (_ bv6 8) (_ bv5 8))))
(assert (not (= (_ bv6 8) x27)))
(assert (not (= (_ bv6 8) (_ bv9 8))))
(assert (not (= x21 x22)))
(assert (not (= x21 (_ bv2 8))))
(assert (not (= x21 (_ bv4 8))))
(assert (not (= x21 x25)))
(assert (not (= x21 (_ bv5 8))))
(assert (not (= x21 x27)))
(assert (not (= x21 (_ bv9 8))))
(assert (not (= x22 (_ bv2 8))))
(assert (not (= x22 (_ bv4 8))))
(assert (not (= x22 x25)))
(assert (not (= x22 (_ bv5 8))))
(assert (not (= x22 x27)))
(assert (not (= x22 (_ bv9 8))))
(assert (not (= (_ bv2 8) (_ bv4 8))))
(assert (not (= (_ bv2 8) x25)))
(assert (not (= (_ bv2 8) (_ bv5 8))))
(assert (not (= (_ bv2 8) x27)))
(assert (not (= (_ bv2 8) (_ bv9 8))))
(assert (not (= (_ bv4 8) x25)))
(assert (not (= (_ bv4 8) (_ bv5 8))))
(assert (not (= (_ bv4 8) x27)))
(assert (not (= (_ bv4 8) (_ bv9 8))))
(assert (not (= x25 (_ bv5 8))))
(assert (not (= x25 x27)))
(assert (not (= x25 (_ bv9 8))))
(assert (not (= (_ bv5 8) x27)))
(assert (not (= (_ bv5 8) (_ bv9 8))))
(assert (not (= x27 (_ bv9 8))))
(assert (not (= x30 x31)))
(assert (not (= x30 x32)))
(assert (not (= x30 (_ bv7 8))))
(assert (not (= x30 (_ bv1 8))))
(assert (not (= x30 x35)))
(assert (not (= x30 (_ bv4 8))))
(assert (not (= x30 (_ bv6 8))))
(assert (not (= x30 x38)))
(assert (not (= x31 x32)))
(assert (not (= x31 (_ bv7 8))))
(assert (not (= x31 (_ bv1 8))))
(assert (not (= x31 x35)))
(assert (not (= x31 (_ bv4 8))))
(assert (not (= x31 (_ bv6 8))))
(assert (not (= x31 x38)))
(assert (not (= x32 (_ bv7 8))))
(assert (not (= x32 (_ bv1 8))))
(assert (not (= x32 x35)))
(assert (not (= x32 (_ bv4 8))))
(assert (not (= x32 (_ bv6 8))))
(assert (not (= x32 x38)))
(assert (not (= (_ bv7 8) (_ bv1 8))))
(assert (not (= (_ bv7 8) x35)))
(assert (not (= (_ bv7 8) (_ bv4 8))))
(assert (not (= (_ bv7 8) (_ bv6 8))))
(assert (not (= (_ bv7 8) x38)))
(assert (not (= (_ bv1 8) x35)))
(assert (not (= (_ bv1 8) (_ bv4 8))))
(assert (not (= (_ bv1 8) (_ bv6 8))))
(assert (not (= (_ bv1 8) x38)))
(assert (not (= x35 (_ bv4 8))))
(assert (not (= x35 (_ bv6 8))))
(assert (not (= x35 x38)))
(assert (not (= (_ bv4 8) (_ bv6 8))))
(assert (not (= (_ bv4 8) x38)))
(assert (not (= (_ bv6 8) x38)))
(assert (not (= x40 x41)))
(assert (not (= x40 (_ bv3 8))))
(assert (not (= x40 x43)))
(assert (not (= x40 (_ bv2 8))))
(assert (not (= x40 (_ bv6 8))))
(assert (not (= x40 x46)))
(assert (not (= x40 x47)))
(assert (not (= x40 x48)))
(assert (not (= x41 (_ bv3 8))))
(assert (not (= x41 x43)))
(assert (not (= x41 (_ bv2 8))))
(assert (not (= x41 (_ bv6 8))))
(assert (not (= x41 x46)))
(assert (not (= x41 x47)))
(assert (not (= x41 x48)))
(assert (not (= (_ bv3 8) x43)))
(assert (not (= (_ bv3 8) (_ bv2 8))))
(assert (not (= (_ bv3 8) (_ bv6 8))))
(assert (not (= (_ bv3 8) x46)))
(assert (not (= (_ bv3 8) x47)))
(assert (not (= (_ bv3 8) x48)))
(assert (not (= x43 (_ bv2 8))))
(assert (not (= x43 (_ bv6 8))))
(assert (not (= x43 x46)))
(assert (not (= x43 x47)))
(assert (not (= x43 x48)))
(assert (not (= (_ bv2 8) (_ bv6 8))))
(assert (not (= (_ bv2 8) x46)))
(assert (not (= (_ bv2 8) x47)))
(assert (not (= (_ bv2 8) x48)))
(assert (not (= (_ bv6 8) x46)))
(assert (not (= (_ bv6 8) x47)))
(assert (not (= (_ bv6 8) x48)))
(assert (not (= x46 x47)))
(assert (not (= x46 x48)))
(assert (not (= x47 x48)))
(assert (not (= (_ bv8 8) (_ bv1 8))))
(assert (not (= (_ bv8 8) x52)))
(assert (not (= (_ bv8 8) (_ bv9 8))))
(assert (not (= (_ bv8 8) x54)))
(assert (not (= (_ bv8 8) x55)))
(assert (not (= (_ bv8 8) x56)))
(assert (not (= (_ bv8 8) x57)))
(assert (not (= (_ bv8 8) x58)))
(assert (not (= (_ bv1 8) x52)))
(assert (not (= (_ bv1 8) (_ bv9 8))))
(assert (not (= (_ bv1 8) x54)))
(assert (not (= (_ bv1 8) x55)))
(assert (not (= (_ bv1 8) x56)))
(assert (not (= (_ bv1 8) x57)))
(assert (not (= (_ bv1 8) x58)))
(assert (not (= x52 (_ bv9 8))))
(assert (not (= x52 x54)))
(assert (not (= x52 x55)))
(assert (not (= x52 x56)))
(assert (not (= x52 x57)))
(assert (not (= x52 x58)))
(assert (not (= (_ bv9 8) x54)))
(assert (not (= (_ bv9 8) x55)))
(assert (not (= (_ bv9 8) x56)))
(assert (not (= (_ bv9 8) x57)))
(assert (not (= (_ bv9 8) x58)))
(assert (not (= x54 x55)))
(assert (not (= x54 x56)))
(assert (not (= x54 x57)))
(assert (not (= x54 x58)))
(assert (not (= x55 x56)))
(assert (not (= x55 x57)))
(assert (not (= x55 x58)))
(assert (not (= x56 x57)))
(assert (not (= x56 x58)))
(assert (not (= x57 x58)))
(assert (not (= (_ bv7 8) x61)))
(assert (not (= (_ bv7 8) (_ bv1 8))))
(assert (not (= (_ bv7 8) x63)))
(assert (not (= (_ bv7 8) (_ bv5 8))))
(assert (not (= (_ bv7 8) (_ bv9 8))))
(assert (not (= (_ bv7 8) x66)))
(assert (not (= (_ bv7 8) x67)))
(assert (not (= (_ bv7 8) x68)))
(assert (not (= x61 (_ bv1 8))))
(assert (not (= x61 x63)))
(assert (not (= x61 (_ bv5 8))))
(assert (not (= x61 (_ bv9 8))))
(assert (not (= x61 x66)))
(assert (not (= x61 x67)))
(assert (not (= x61 x68)))
(assert (not (= (_ bv1 8) x63)))
(assert (not (= (_ bv1 8) (_ bv5 8))))
(assert (not (= (_ bv1 8) (_ bv9 8))))
(assert (not (= (_ bv1 8) x66)))
(assert (not (= (_ bv1 8) x67)))
(assert (not (= (_ bv1 8) x68)))
(assert (not (= x63 (_ bv5 8))))
(assert (not (= x63 (_ bv9 8))))
(assert (not (= x63 x66)))
(assert (not (= x63 x67)))
(assert (not (= x63 x68)))
(assert (not (= (_ bv5 8) (_ bv9 8))))
(assert (not (= (_ bv5 8) x66)))
(assert (not (= (_ bv5 8) x67)))
(assert (not (= (_ bv5 8) x68)))
(assert (not (= (_ bv9 8) x66)))
(assert (not (= (_ bv9 8) x67)))
(assert (not (= (_ bv9 8) x68)))
(assert (not (= x66 x67)))
(assert (not (= x66 x68)))
(assert (not (= x67 x68)))
(assert (not (= x70 x71)))
(assert (not (= x70 x72)))
(assert (not (= x70 x73)))
(assert (not (= x70 x74)))
(assert (not (= x70 x75)))
(assert (not (= x70 x76)))
(assert (not (= x70 (_ bv5 8))))
(assert (not (= x70 (_ bv2 8))))
(assert (not (= x71 x72)))
(assert (not (= x71 x73)))
(assert (not (= x71 x74)))
(assert (not (= x71 x75)))
(assert (not (= x71 x76)))
(assert (not (= x71 (_ bv5 8))))
(assert (not (= x71 (_ bv2 8))))
(assert (not (= x72 x73)))
(assert (not (= x72 x74)))
(assert (not (= x72 x75)))
(assert (not (= x72 x76)))
(assert (not (= x72 (_ bv5 8))))
(assert (not (= x72 (_ bv2 8))))
(assert (not (= x73 x74)))
(assert (not (= x73 x75)))
(assert (not (= x73 x76)))
(assert (not (= x73 (_ bv5 8))))
(assert (not (= x73 (_ bv2 8))))
(assert (not (= x74 x75)))
(assert (not (= x74 x76)))
(assert (not (= x74 (_ bv5 8))))
(assert (not (= x74 (_ bv2 8))))
(assert (not (= x75 x76)))
(assert (not (= x75 (_ bv5 8))))
(assert (not (= x75 (_ bv2 8))))
(assert (not (= x76 (_ bv5 8))))
(assert (not (= x76 (_ bv2 8))))
(assert (not (= (_ bv5 8) (_ bv2 8))))
(assert (not (= x80 (_ bv8 8))))
(assert (not (= x80 (_ bv9 8))))
(assert (not (= x80 x83)))
(assert (not (= x80 (_ bv6 8))))
(assert (not (= x80 x85)))
(assert (not (= x80 x86)))
(assert (not (= x80 (_ bv1 8))))
(assert (not (= x80 x88)))
(assert (not (= (_ bv8 8) (_ bv9 8))))
(assert (not (= (_ bv8 8) x83)))
(assert (not (= (_ bv8 8) (_ bv6 8))))
(assert (not (= (_ bv8 8) x85)))
(assert (not (= (_ bv8 8) x86)))
(assert (not (= (_ bv8 8) (_ bv1 8))))
(assert (not (= (_ bv8 8) x88)))
(assert (not (= (_ bv9 8) x83)))
(assert (not (= (_ bv9 8) (_ bv6 8))))
(assert (not (= (_ bv9 8) x85)))
(assert (not (= (_ bv9 8) x86)))
(assert (not (= (_ bv9 8) (_ bv1 8))))
(assert (not (= (_ bv9 8) x88)))
(assert (not (= x83 (_ bv6 8))))
(assert (not (= x83 x85)))
(assert (not (= x83 x86)))
(assert (not (= x83 (_ bv1 8))))
(assert (not (= x83 x88)))
(assert (not (= (_ bv6 8) x85)))
(assert (not (= (_ bv6 8) x86)))
(assert (not (= (_ bv6 8) (_ bv1 8))))
(assert (not (= (_ bv6 8) x88)))
(assert (not (= x85 x86)))
(assert (not (= x85 (_ bv1 8))))
(assert (not (= x85 x88)))
(assert (not (= x86 (_ bv1 8))))
(assert (not (= x86 x88)))
(assert (not (= (_ bv1 8) x88)))
(assert (not (= (_ bv9 8) x10)))
(assert (not (= (_ bv9 8) (_ bv6 8))))
(assert (not (= (_ bv9 8) x30)))
(assert (not (= (_ bv9 8) x40)))
(assert (not (= (_ bv9 8) (_ bv8 8))))
(assert (not (= (_ bv9 8) (_ bv7 8))))
(assert (not (= (_ bv9 8) x70)))
(assert (not (= (_ bv9 8) x80)))
(assert (not (= x10 (_ bv6 8))))
(assert (not (= x10 x30)))
(assert (not (= x10 x40)))
(assert (not (= x10 (_ bv8 8))))
(assert (not (= x10 (_ bv7 8))))
(assert (not (= x10 x70)))
(assert (not (= x10 x80)))
(assert (not (= (_ bv6 8) x30)))
(assert (not (= (_ bv6 8) x40)))
(assert (not (= (_ bv6 8) (_ bv8 8))))
(assert (not (= (_ bv6 8) (_ bv7 8))))
(assert (not (= (_ bv6 8) x70)))
(assert (not (= (_ bv6 8) x80)))
(assert (not (= x30 x40)))
(assert (not (= x30 (_ bv8 8))))
(assert (not (= x30 (_ bv7 8))))
(assert (not (= x30 x70)))
(assert (not (= x30 x80)))
(assert (not (= x40 (_ bv8 8))))
(assert (not (= x40 (_ bv7 8))))
(assert (not (= x40 x70)))
(assert (not (= x40 x80)))
(assert (not (= (_ bv8 8) (_ bv7 8))))
(assert (not (= (_ bv8 8) x70)))
(assert (not (= (_ bv8 8) x80)))
(assert (not (= (_ bv7 8) x70)))
(assert (not (= (_ bv7 8) x80)))
(assert (not (= x70 x80)))
(assert (not (= x01 (_ bv4 8))))
(assert (not (= x01 x21)))
(assert (not (= x01 x31)))
(assert (not (= x01 x41)))
(assert (not (= x01 (_ bv1 8))))
(assert (not (= x01 x61)))
(assert (not (= x01 x71)))
(assert (not (= x01 (_ bv8 8))))
(assert (not (= (_ bv4 8) x21)))
(assert (not (= (_ bv4 8) x31)))
(assert (not (= (_ bv4 8) x41)))
(assert (not (= (_ bv4 8) (_ bv1 8))))
(assert (not (= (_ bv4 8) x61)))
(assert (not (= (_ bv4 8) x71)))
(assert (not (= (_ bv4 8) (_ bv8 8))))
(assert (not (= x21 x31)))
(assert (not (= x21 x41)))
(assert (not (= x21 (_ bv1 8))))
(assert (not (= x21 x61)))
(assert (not (= x21 x71)))
(assert (not (= x21 (_ bv8 8))))
(assert (not (= x31 x41)))
(assert (not (= x31 (_ bv1 8))))
(assert (not (= x31 x61)))
(assert (not (= x31 x71)))
(assert (not (= x31 (_ bv8 8))))
(assert (not (= x41 (_ bv1 8))))
(assert (not (= x41 x61)))
(assert (not (= x41 x71)))
(assert (not (= x41 (_ bv8 8))))
(assert (not (= (_ bv1 8) x61)))
(assert (not (= (_ bv1 8) x71)))
(assert (not (= (_ bv1 8) (_ bv8 8))))
(assert (not (= x61 x71)))
(assert (not (= x61 (_ bv8 8))))
(assert (not (= x71 (_ bv8 8))))
(assert (not (= x02 (_ bv7 8))))
(assert (not (= x02 x22)))
(assert (not (= x02 x32)))
(assert (not (= x02 (_ bv3 8))))
(assert (not (= x02 x52)))
(assert (not (= x02 (_ bv1 8))))
(assert (not (= x02 x72)))
(assert (not (= x02 (_ bv9 8))))
(assert (not (= (_ bv7 8) x22)))
(assert (not (= (_ bv7 8) x32)))
(assert (not (= (_ bv7 8) (_ bv3 8))))
(assert (not (= (_ bv7 8) x52)))
(assert (not (= (_ bv7 8) (_ bv1 8))))
(assert (not (= (_ bv7 8) x72)))
(assert (not (= (_ bv7 8) (_ bv9 8))))
(assert (not (= x22 x32)))
(assert (not (= x22 (_ bv3 8))))
(assert (not (= x22 x52)))
(assert (not (= x22 (_ bv1 8))))
(assert (not (= x22 x72)))
(assert (not (= x22 (_ bv9 8))))
(assert (not (= x32 (_ bv3 8))))
(assert (not (= x32 x52)))
(assert (not (= x32 (_ bv1 8))))
(assert (not (= x32 x72)))
(assert (not (= x32 (_ bv9 8))))
(assert (not (= (_ bv3 8) x52)))
(assert (not (= (_ bv3 8) (_ bv1 8))))
(assert (not (= (_ bv3 8) x72)))
(assert (not (= (_ bv3 8) (_ bv9 8))))
(assert (not (= x52 (_ bv1 8))))
(assert (not (= x52 x72)))
(assert (not (= x52 (_ bv9 8))))
(assert (not (= (_ bv1 8) x72)))
(assert (not (= (_ bv1 8) (_ bv9 8))))
(assert (not (= x72 (_ bv9 8))))
(assert (not (= x03 (_ bv8 8))))
(assert (not (= x03 (_ bv2 8))))
(assert (not (= x03 (_ bv7 8))))
(assert (not (= x03 x43)))
(assert (not (= x03 (_ bv9 8))))
(assert (not (= x03 x63)))
(assert (not (= x03 x73)))
(assert (not (= x03 x83)))
(assert (not (= (_ bv8 8) (_ bv2 8))))
(assert (not (= (_ bv8 8) (_ bv7 8))))
(assert (not (= (_ bv8 8) x43)))
(assert (not (= (_ bv8 8) (_ bv9 8))))
(assert (not (= (_ bv8 8) x63)))
(assert (not (= (_ bv8 8) x73)))
(assert (not (= (_ bv8 8) x83)))
(assert (not (= (_ bv2 8) (_ bv7 8))))
(assert (not (= (_ bv2 8) x43)))
(assert (not (= (_ bv2 8) (_ bv9 8))))
(assert (not (= (_ bv2 8) x63)))
(assert (not (= (_ bv2 8) x73)))
(assert (not (= (_ bv2 8) x83)))
(assert (not (= (_ bv7 8) x43)))
(assert (not (= (_ bv7 8) (_ bv9 8))))
(assert (not (= (_ bv7 8) x63)))
(assert (not (= (_ bv7 8) x73)))
(assert (not (= (_ bv7 8) x83)))
(assert (not (= x43 (_ bv9 8))))
(assert (not (= x43 x63)))
(assert (not (= x43 x73)))
(assert (not (= x43 x83)))
(assert (not (= (_ bv9 8) x63)))
(assert (not (= (_ bv9 8) x73)))
(assert (not (= (_ bv9 8) x83)))
(assert (not (= x63 x73)))
(assert (not (= x63 x83)))
(assert (not (= x73 x83)))
(assert (not (= x04 x14)))
(assert (not (= x04 (_ bv4 8))))
(assert (not (= x04 (_ bv1 8))))
(assert (not (= x04 (_ bv2 8))))
(assert (not (= x04 x54)))
(assert (not (= x04 (_ bv5 8))))
(assert (not (= x04 x74)))
(assert (not (= x04 (_ bv6 8))))
(assert (not (= x14 (_ bv4 8))))
(assert (not (= x14 (_ bv1 8))))
(assert (not (= x14 (_ bv2 8))))
(assert (not (= x14 x54)))
(assert (not (= x14 (_ bv5 8))))
(assert (not (= x14 x74)))
(assert (not (= x14 (_ bv6 8))))
(assert (not (= (_ bv4 8) (_ bv1 8))))
(assert (not (= (_ bv4 8) (_ bv2 8))))
(assert (not (= (_ bv4 8) x54)))
(assert (not (= (_ bv4 8) (_ bv5 8))))
(assert (not (= (_ bv4 8) x74)))
(assert (not (= (_ bv4 8) (_ bv6 8))))
(assert (not (= (_ bv1 8) (_ bv2 8))))
(assert (not (= (_ bv1 8) x54)))
(assert (not (= (_ bv1 8) (_ bv5 8))))
(assert (not (= (_ bv1 8) x74)))
(assert (not (= (_ bv1 8) (_ bv6 8))))
(assert (not (= (_ bv2 8) x54)))
(assert (not (= (_ bv2 8) (_ bv5 8))))
(assert (not (= (_ bv2 8) x74)))
(assert (not (= (_ bv2 8) (_ bv6 8))))
(assert (not (= x54 (_ bv5 8))))
(assert (not (= x54 x74)))
(assert (not (= x54 (_ bv6 8))))
(assert (not (= (_ bv5 8) x74)))
(assert (not (= (_ bv5 8) (_ bv6 8))))
(assert (not (= x74 (_ bv6 8))))
(assert (not (= (_ bv3 8) x15)))
(assert (not (= (_ bv3 8) x25)))
(assert (not (= (_ bv3 8) x35)))
(assert (not (= (_ bv3 8) (_ bv6 8))))
(assert (not (= (_ bv3 8) x55)))
(assert (not (= (_ bv3 8) (_ bv9 8))))
(assert (not (= (_ bv3 8) x75)))
(assert (not (= (_ bv3 8) x85)))
(assert (not (= x15 x25)))
(assert (not (= x15 x35)))
(assert (not (= x15 (_ bv6 8))))
(assert (not (= x15 x55)))
(assert (not (= x15 (_ bv9 8))))
(assert (not (= x15 x75)))
(assert (not (= x15 x85)))
(assert (not (= x25 x35)))
(assert (not (= x25 (_ bv6 8))))
(assert (not (= x25 x55)))
(assert (not (= x25 (_ bv9 8))))
(assert (not (= x25 x75)))
(assert (not (= x25 x85)))
(assert (not (= x35 (_ bv6 8))))
(assert (not (= x35 x55)))
(assert (not (= x35 (_ bv9 8))))
(assert (not (= x35 x75)))
(assert (not (= x35 x85)))
(assert (not (= (_ bv6 8) x55)))
(assert (not (= (_ bv6 8) (_ bv9 8))))
(assert (not (= (_ bv6 8) x75)))
(assert (not (= (_ bv6 8) x85)))
(assert (not (= x55 (_ bv9 8))))
(assert (not (= x55 x75)))
(assert (not (= x55 x85)))
(assert (not (= (_ bv9 8) x75)))
(assert (not (= (_ bv9 8) x85)))
(assert (not (= x75 x85)))
(assert (not (= (_ bv1 8) (_ bv2 8))))
(assert (not (= (_ bv1 8) (_ bv5 8))))
(assert (not (= (_ bv1 8) (_ bv4 8))))
(assert (not (= (_ bv1 8) x46)))
(assert (not (= (_ bv1 8) x56)))
(assert (not (= (_ bv1 8) x66)))
(assert (not (= (_ bv1 8) x76)))
(assert (not (= (_ bv1 8) x86)))
(assert (not (= (_ bv2 8) (_ bv5 8))))
(assert (not (= (_ bv2 8) (_ bv4 8))))
(assert (not (= (_ bv2 8) x46)))
(assert (not (= (_ bv2 8) x56)))
(assert (not (= (_ bv2 8) x66)))
(assert (not (= (_ bv2 8) x76)))
(assert (not (= (_ bv2 8) x86)))
(assert (not (= (_ bv5 8) (_ bv4 8))))
(assert (not (= (_ bv5 8) x46)))
(assert (not (= (_ bv5 8) x56)))
(assert (not (= (_ bv5 8) x66)))
(assert (not (= (_ bv5 8) x76)))
(assert (not (= (_ bv5 8) x86)))
(assert (not (= (_ bv4 8) x46)))
(assert (not (= (_ bv4 8) x56)))
(assert (not (= (_ bv4 8) x66)))
(assert (not (= (_ bv4 8) x76)))
(assert (not (= (_ bv4 8) x86)))
(assert (not (= x46 x56)))
(assert (not (= x46 x66)))
(assert (not (= x46 x76)))
(assert (not (= x46 x86)))
(assert (not (= x56 x66)))
(assert (not (= x56 x76)))
(assert (not (= x56 x86)))
(assert (not (= x66 x76)))
(assert (not (= x66 x86)))
(assert (not (= x76 x86)))
(assert (not (= (_ bv8 8) (_ bv3 8))))
(assert (not (= (_ bv8 8) x27)))
(assert (not (= (_ bv8 8) (_ bv6 8))))
(assert (not (= (_ bv8 8) x47)))
(assert (not (= (_ bv8 8) x57)))
(assert (not (= (_ bv8 8) x67)))
(assert (not (= (_ bv8 8) (_ bv5 8))))
(assert (not (= (_ bv8 8) (_ bv1 8))))
(assert (not (= (_ bv3 8) x27)))
(assert (not (= (_ bv3 8) (_ bv6 8))))
(assert (not (= (_ bv3 8) x47)))
(assert (not (= (_ bv3 8) x57)))
(assert (not (= (_ bv3 8) x67)))
(assert (not (= (_ bv3 8) (_ bv5 8))))
(assert (not (= (_ bv3 8) (_ bv1 8))))
(assert (not (= x27 (_ bv6 8))))
(assert (not (= x27 x47)))
(assert (not (= x27 x57)))
(assert (not (= x27 x67)))
(assert (not (= x27 (_ bv5 8))))
(assert (not (= x27 (_ bv1 8))))
(assert (not (= (_ bv6 8) x47)))
(assert (not (= (_ bv6 8) x57)))
(assert (not (= (_ bv6 8) x67)))
(assert (not (= (_ bv6 8) (_ bv5 8))))
(assert (not (= (_ bv6 8) (_ bv1 8))))
(assert (not (= x47 x57)))
(assert (not (= x47 x67)))
(assert (not (= x47 (_ bv5 8))))
(assert (not (= x47 (_ bv1 8))))
(assert (not (= x57 x67)))
(assert (not (= x57 (_ bv5 8))))
(assert (not (= x57 (_ bv1 8))))
(assert (not (= x67 (_ bv5 8))))
(assert (not (= x67 (_ bv1 8))))
(assert (not (= (_ bv5 8) (_ bv1 8))))
(assert (not (= x08 x18)))
(assert (not (= x08 (_ bv9 8))))
(assert (not (= x08 x38)))
(assert (not (= x08 x48)))
(assert (not (= x08 x58)))
(assert (not (= x08 x68)))
(assert (not (= x08 (_ bv2 8))))
(assert (not (= x08 x88)))
(assert (not (= x18 (_ bv9 8))))
(assert (not (= x18 x38)))
(assert (not (= x18 x48)))
(assert (not (= x18 x58)))
(assert (not (= x18 x68)))
(assert (not (= x18 (_ bv2 8))))
(assert (not (= x18 x88)))
(assert (not (= (_ bv9 8) x38)))
(assert (not (= (_ bv9 8) x48)))
(assert (not (= (_ bv9 8) x58)))
(assert (not (= (_ bv9 8) x68)))
(assert (not (= (_ bv9 8) (_ bv2 8))))
(assert (not (= (_ bv9 8) x88)))
(assert (not (= x38 x48)))
(assert (not (= x38 x58)))
(assert (not (= x38 x68)))
(assert (not (= x38 (_ bv2 8))))
(assert (not (= x38 x88)))
(assert (not (= x48 x58)))
(assert (not (= x48 x68)))
(assert (not (= x48 (_ bv2 8))))
(assert (not (= x48 x88)))
(assert (not (= x58 x68)))
(assert (not (= x58 (_ bv2 8))))
(assert (not (= x58 x88)))
(assert (not (= x68 (_ bv2 8))))
(assert (not (= x68 x88)))
(assert (not (= (_ bv2 8) x88)))
(assert (not (= (_ bv9 8) x01)))
(assert (not (= (_ bv9 8) x02)))
(assert (not (= (_ bv9 8) x10)))
(assert (not (= (_ bv9 8) (_ bv4 8))))
(assert (not (= (_ bv9 8) (_ bv7 8))))
(assert (not (= (_ bv9 8) (_ bv6 8))))
(assert (not (= (_ bv9 8) x21)))
(assert (not (= (_ bv9 8) x22)))
(assert (not (= x01 x02)))
(assert (not (= x01 x10)))
(assert (not (= x01 (_ bv4 8))))
(assert (not (= x01 (_ bv7 8))))
(assert (not (= x01 (_ bv6 8))))
(assert (not (= x01 x21)))
(assert (not (= x01 x22)))
(assert (not (= x02 x10)))
(assert (not (= x02 (_ bv4 8))))
(assert (not (= x02 (_ bv7 8))))
(assert (not (= x02 (_ bv6 8))))
(assert (not (= x02 x21)))
(assert (not (= x02 x22)))
(assert (not (= x10 (_ bv4 8))))
(assert (not (= x10 (_ bv7 8))))
(assert (not (= x10 (_ bv6 8))))
(assert (not (= x10 x21)))
(assert (not (= x10 x22)))
(assert (not (= (_ bv4 8) (_ bv7 8))))
(assert (not (= (_ bv4 8) (_ bv6 8))))
(assert (not (= (_ bv4 8) x21)))
(assert (not (= (_ bv4 8) x22)))
(assert (not (= (_ bv7 8) (_ bv6 8))))
(assert (not (= (_ bv7 8) x21)))
(assert (not (= (_ bv7 8) x22)))
(assert (not (= (_ bv6 8) x21)))
(assert (not (= (_ bv6 8) x22)))
(assert (not (= x21 x22)))
(assert (not (= x03 x04)))
(assert (not (= x03 (_ bv3 8))))
(assert (not (= x03 (_ bv8 8))))
(assert (not (= x03 x14)))
(assert (not (= x03 x15)))
(assert (not (= x03 (_ bv2 8))))
(assert (not (= x03 (_ bv4 8))))
(assert (not (= x03 x25)))
(assert (not (= x04 (_ bv3 8))))
(assert (not (= x04 (_ bv8 8))))
(assert (not (= x04 x14)))
(assert (not (= x04 x15)))
(assert (not (= x04 (_ bv2 8))))
(assert (not (= x04 (_ bv4 8))))
(assert (not (= x04 x25)))
(assert (not (= (_ bv3 8) (_ bv8 8))))
(assert (not (= (_ bv3 8) x14)))
(assert (not (= (_ bv3 8) x15)))
(assert (not (= (_ bv3 8) (_ bv2 8))))
(assert (not (= (_ bv3 8) (_ bv4 8))))
(assert (not (= (_ bv3 8) x25)))
(assert (not (= (_ bv8 8) x14)))
(assert (not (= (_ bv8 8) x15)))
(assert (not (= (_ bv8 8) (_ bv2 8))))
(assert (not (= (_ bv8 8) (_ bv4 8))))
(assert (not (= (_ bv8 8) x25)))
(assert (not (= x14 x15)))
(assert (not (= x14 (_ bv2 8))))
(assert (not (= x14 (_ bv4 8))))
(assert (not (= x14 x25)))
(assert (not (= x15 (_ bv2 8))))
(assert (not (= x15 (_ bv4 8))))
(assert (not (= x15 x25)))
(assert (not (= (_ bv2 8) (_ bv4 8))))
(assert (not (= (_ bv2 8) x25)))
(assert (not (= (_ bv4 8) x25)))
(assert (not (= (_ bv1 8) (_ bv8 8))))
(assert (not (= (_ bv1 8) x08)))
(assert (not (= (_ bv1 8) (_ bv2 8))))
(assert (not (= (_ bv1 8) (_ bv3 8))))
(assert (not (= (_ bv1 8) x18)))
(assert (not (= (_ bv1 8) (_ bv5 8))))
(assert (not (= (_ bv1 8) x27)))
(assert (not (= (_ bv1 8) (_ bv9 8))))
(assert (not (= (_ bv8 8) x08)))
(assert (not (= (_ bv8 8) (_ bv2 8))))
(assert (not (= (_ bv8 8) (_ bv3 8))))
(assert (not (= (_ bv8 8) x18)))
(assert (not (= (_ bv8 8) (_ bv5 8))))
(assert (not (= (_ bv8 8) x27)))
(assert (not (= (_ bv8 8) (_ bv9 8))))
(assert (not (= x08 (_ bv2 8))))
(assert (not (= x08 (_ bv3 8))))
(assert (not (= x08 x18)))
(assert (not (= x08 (_ bv5 8))))
(assert (not (= x08 x27)))
(assert (not (= x08 (_ bv9 8))))
(assert (not (= (_ bv2 8) (_ bv3 8))))
(assert (not (= (_ bv2 8) x18)))
(assert (not (= (_ bv2 8) (_ bv5 8))))
(assert (not (= (_ bv2 8) x27)))
(assert (not (= (_ bv2 8) (_ bv9 8))))
(assert (not (= (_ bv3 8) x18)))
(assert (not (= (_ bv3 8) (_ bv5 8))))
(assert (not (= (_ bv3 8) x27)))
(assert (not (= (_ bv3 8) (_ bv9 8))))
(assert (not (= x18 (_ bv5 8))))
(assert (not (= x18 x27)))
(assert (not (= x18 (_ bv9 8))))
(assert (not (= (_ bv5 8) x27)))
(assert (not (= (_ bv5 8) (_ bv9 8))))
(assert (not (= x27 (_ bv9 8))))
(assert (not (= x30 x31)))
(assert (not (= x30 x32)))
(assert (not (= x30 x40)))
(assert (not (= x30 x41)))
(assert (not (= x30 (_ bv3 8))))
(assert (not (= x30 (_ bv8 8))))
(assert (not (= x30 (_ bv1 8))))
(assert (not (= x30 x52)))
(assert (not (= x31 x32)))
(assert (not (= x31 x40)))
(assert (not (= x31 x41)))
(assert (not (= x31 (_ bv3 8))))
(assert (not (= x31 (_ bv8 8))))
(assert (not (= x31 (_ bv1 8))))
(assert (not (= x31 x52)))
(assert (not (= x32 x40)))
(assert (not (= x32 x41)))
(assert (not (= x32 (_ bv3 8))))
(assert (not (= x32 (_ bv8 8))))
(assert (not (= x32 (_ bv1 8))))
(assert (not (= x32 x52)))
(assert (not (= x40 x41)))
(assert (not (= x40 (_ bv3 8))))
(assert (not (= x40 (_ bv8 8))))
(assert (not (= x40 (_ bv1 8))))
(assert (not (= x40 x52)))
(assert (not (= x41 (_ bv3 8))))
(assert (not (= x41 (_ bv8 8))))
(assert (not (= x41 (_ bv1 8))))
(assert (not (= x41 x52)))
(assert (not (= (_ bv3 8) (_ bv8 8))))
(assert (not (= (_ bv3 8) (_ bv1 8))))
(assert (not (= (_ bv3 8) x52)))
(assert (not (= (_ bv8 8) (_ bv1 8))))
(assert (not (= (_ bv8 8) x52)))
(assert (not (= (_ bv1 8) x52)))
(assert (not (= (_ bv7 8) (_ bv1 8))))
(assert (not (= (_ bv7 8) x35)))
(assert (not (= (_ bv7 8) x43)))
(assert (not (= (_ bv7 8) (_ bv2 8))))
(assert (not (= (_ bv7 8) (_ bv6 8))))
(assert (not (= (_ bv7 8) (_ bv9 8))))
(assert (not (= (_ bv7 8) x54)))
(assert (not (= (_ bv7 8) x55)))
(assert (not (= (_ bv1 8) x35)))
(assert (not (= (_ bv1 8) x43)))
(assert (not (= (_ bv1 8) (_ bv2 8))))
(assert (not (= (_ bv1 8) (_ bv6 8))))
(assert (not (= (_ bv1 8) (_ bv9 8))))
(assert (not (= (_ bv1 8) x54)))
(assert (not (= (_ bv1 8) x55)))
(assert (not (= x35 x43)))
(assert (not (= x35 (_ bv2 8))))
(assert (not (= x35 (_ bv6 8))))
(assert (not (= x35 (_ bv9 8))))
(assert (not (= x35 x54)))
(assert (not (= x35 x55)))
(assert (not (= x43 (_ bv2 8))))
(assert (not (= x43 (_ bv6 8))))
(assert (not (= x43 (_ bv9 8))))
(assert (not (= x43 x54)))
(assert (not (= x43 x55)))
(assert (not (= (_ bv2 8) (_ bv6 8))))
(assert (not (= (_ bv2 8) (_ bv9 8))))
(assert (not (= (_ bv2 8) x54)))
(assert (not (= (_ bv2 8) x55)))
(assert (not (= (_ bv6 8) (_ bv9 8))))
(assert (not (= (_ bv6 8) x54)))
(assert (not (= (_ bv6 8) x55)))
(assert (not (= (_ bv9 8) x54)))
(assert (not (= (_ bv9 8) x55)))
(assert (not (= x54 x55)))
(assert (not (= (_ bv4 8) (_ bv6 8))))
(assert (not (= (_ bv4 8) x38)))
(assert (not (= (_ bv4 8) x46)))
(assert (not (= (_ bv4 8) x47)))
(assert (not (= (_ bv4 8) x48)))
(assert (not (= (_ bv4 8) x56)))
(assert (not (= (_ bv4 8) x57)))
(assert (not (= (_ bv4 8) x58)))
(assert (not (= (_ bv6 8) x38)))
(assert (not (= (_ bv6 8) x46)))
(assert (not (= (_ bv6 8) x47)))
(assert (not (= (_ bv6 8) x48)))
(assert (not (= (_ bv6 8) x56)))
(assert (not (= (_ bv6 8) x57)))
(assert (not (= (_ bv6 8) x58)))
(assert (not (= x38 x46)))
(assert (not (= x38 x47)))
(assert (not (= x38 x48)))
(assert (not (= x38 x56)))
(assert (not (= x38 x57)))
(assert (not (= x38 x58)))
(assert (not (= x46 x47)))
(assert (not (= x46 x48)))
(assert (not (= x46 x56)))
(assert (not (= x46 x57)))
(assert (not (= x46 x58)))
(assert (not (= x47 x48)))
(assert (not (= x47 x56)))
(assert (not (= x47 x57)))
(assert (not (= x47 x58)))
(assert (not (= x48 x56)))
(assert (not (= x48 x57)))
(assert (not (= x48 x58)))
(assert (not (= x56 x57)))
(assert (not (= x56 x58)))
(assert (not (= x57 x58)))
(assert (not (= (_ bv7 8) x61)))
(assert (not (= (_ bv7 8) (_ bv1 8))))
(assert (not (= (_ bv7 8) x70)))
(assert (not (= (_ bv7 8) x71)))
(assert (not (= (_ bv7 8) x72)))
(assert (not (= (_ bv7 8) x80)))
(assert (not (= (_ bv7 8) (_ bv8 8))))
(assert (not (= (_ bv7 8) (_ bv9 8))))
(assert (not (= x61 (_ bv1 8))))
(assert (not (= x61 x70)))
(assert (not (= x61 x71)))
(assert (not (= x61 x72)))
(assert (not (= x61 x80)))
(assert (not (= x61 (_ bv8 8))))
(assert (not (= x61 (_ bv9 8))))
(assert (not (= (_ bv1 8) x70)))
(assert (not (= (_ bv1 8) x71)))
(assert (not (= (_ bv1 8) x72)))
(assert (not (= (_ bv1 8) x80)))
(assert (not (= (_ bv1 8) (_ bv8 8))))
(assert (not (= (_ bv1 8) (_ bv9 8))))
(assert (not (= x70 x71)))
(assert (not (= x70 x72)))
(assert (not (= x70 x80)))
(assert (not (= x70 (_ bv8 8))))
(assert (not (= x70 (_ bv9 8))))
(assert (not (= x71 x72)))
(assert (not (= x71 x80)))
(assert (not (= x71 (_ bv8 8))))
(assert (not (= x71 (_ bv9 8))))
(assert (not (= x72 x80)))
(assert (not (= x72 (_ bv8 8))))
(assert (not (= x72 (_ bv9 8))))
(assert (not (= x80 (_ bv8 8))))
(assert (not (= x80 (_ bv9 8))))
(assert (not (= (_ bv8 8) (_ bv9 8))))
(assert (not (= x63 (_ bv5 8))))
(assert (not (= x63 (_ bv9 8))))
(assert (not (= x63 x73)))
(assert (not (= x63 x74)))
(assert (not (= x63 x75)))
(assert (not (= x63 x83)))
(assert (not (= x63 (_ bv6 8))))
(assert (not (= x63 x85)))
(assert (not (= (_ bv5 8) (_ bv9 8))))
(assert (not (= (_ bv5 8) x73)))
(assert (not (= (_ bv5 8) x74)))
(assert (not (= (_ bv5 8) x75)))
(assert (not (= (_ bv5 8) x83)))
(assert (not (= (_ bv5 8) (_ bv6 8))))
(assert (not (= (_ bv5 8) x85)))
(assert (not (= (_ bv9 8) x73)))
(assert (not (= (_ bv9 8) x74)))
(assert (not (= (_ bv9 8) x75)))
(assert (not (= (_ bv9 8) x83)))
(assert (not (= (_ bv9 8) (_ bv6 8))))
(assert (not (= (_ bv9 8) x85)))
(assert (not (= x73 x74)))
(assert (not (= x73 x75)))
(assert (not (= x73 x83)))
(assert (not (= x73 (_ bv6 8))))
(assert (not (= x73 x85)))
(assert (not (= x74 x75)))
(assert (not (= x74 x83)))
(assert (not (= x74 (_ bv6 8))))
(assert (not (= x74 x85)))
(assert (not (= x75 x83)))
(assert (not (= x75 (_ bv6 8))))
(assert (not (= x75 x85)))
(assert (not (= x83 (_ bv6 8))))
(assert (not (= x83 x85)))
(assert (not (= (_ bv6 8) x85)))
(assert (not (= x66 x67)))
(assert (not (= x66 x68)))
(assert (not (= x66 x76)))
(assert (not (= x66 (_ bv5 8))))
(assert (not (= x66 (_ bv2 8))))
(assert (not (= x66 x86)))
(assert (not (= x66 (_ bv1 8))))
(assert (not (= x66 x88)))
(assert (not (= x67 x68)))
(assert (not (= x67 x76)))
(assert (not (= x67 (_ bv5 8))))
(assert (not (= x67 (_ bv2 8))))
(assert (not (= x67 x86)))
(assert (not (= x67 (_ bv1 8))))
(assert (not (= x67 x88)))
(assert (not (= x68 x76)))
(assert (not (= x68 (_ bv5 8))))
(assert (not (= x68 (_ bv2 8))))
(assert (not (= x68 x86)))
(assert (not (= x68 (_ bv1 8))))
(assert (not (= x68 x88)))
(assert (not (= x76 (_ bv5 8))))
(assert (not (= x76 (_ bv2 8))))
(assert (not (= x76 x86)))
(assert (not (= x76 (_ bv1 8))))
(assert (not (= x76 x88)))
(assert (not (= (_ bv5 8) (_ bv2 8))))
(assert (not (= (_ bv5 8) x86)))
(assert (not (= (_ bv5 8) (_ bv1 8))))
(assert (not (= (_ bv5 8) x88)))
(assert (not (= (_ bv2 8) x86)))
(assert (not (= (_ bv2 8) (_ bv1 8))))
(assert (not (= (_ bv2 8) x88)))
(assert (not (= x86 (_ bv1 8))))
(assert (not (= x86 x88)))
(assert (not (= (_ bv1 8) x88)))
(check-sat)
(exit)
